# Solution for model Objective
# Objective value = 6
M 3
W2 0
W3 0
W5 0
W10 0
W11 0
W13 0
W15 0
W17 0
W20 0
W21 0
W22 0
W23 0
W25 0
W26 0
W27 0
W30 0
W31 0
W34 0
W35 0
W37 0
W38 0
W39 0
W40 0
W42 0
W43 0
W46 0
W47 0
W48 0
W50 0
W51 0
W52 1
W57 0
W58 0
W60 0
W62 0
W66 0
W67 0
W69 0
W70 1
W71 0
W72 0
W73 1
W0 3
W1 3
W4 1
W6 0
W7 3
W8 3
W9 3
W12 3
W14 0
W16 3
W18 3
W19 2
W24 3
W28 1
W29 3
W32 3
W33 3
W36 1
W41 3
W44 1
W45 3
W49 0
W53 0
W54 3
W55 3
W56 3
W59 1
W61 2
W63 3
W64 2
W65 1
W68 0
d0_1 0
d0_2 0
d0_3 0
d0_4 0
d0_5 0
d0_6 0
d0_7 0
d0_8 0
d0_9 0
d0_0 1
d1_1 0
d1_2 0
d1_3 1
d1_4 0
d1_5 0
d1_6 0
d1_7 0
d1_8 0
d1_9 0
d1_0 0
d2_1 0
d2_2 1
d2_3 0
d2_4 0
d2_5 0
d2_6 0
d2_7 0
d2_8 0
d2_9 0
d2_0 0
d3_1 0
d3_2 0
d3_3 0
d3_4 1
d3_5 0
d3_6 0
d3_7 0
d3_8 0
d3_9 0
d3_0 0
d4_1 1
d4_2 0
d4_3 0
d4_4 0
d4_5 0
d4_6 0
d4_7 0
d4_8 0
d4_9 0
d4_0 0
d5_1 1
d5_2 0
d5_3 0
d5_4 0
d5_5 0
d5_6 0
d5_7 0
d5_8 0
d5_9 0
d5_0 0
